14 965
520 7 444 7 352 7 190 9 19 11 841 15 712 23
520 7 444 7 352 7 190 9 19 11 841 15 712 23
525 7 476 7 354 7 155 9 5 11 838 15 649 20 566 28
535 8 494 8 422 11
525 7 445 7 263 7 62 9 888 11 719 18
525 7 479 7 356 7 107 9 6 11 781 15 614 22
525 7 479 7 356 7 107 9 6 11 781 15 614 22
525 7 482 7 394 7 212 9 29 11 822 15 625 21
525 7 482 7 394 7 212 9 29 11 822 15 625 21
525 7 445 7 264 7 63 9 877 13
525 7 445 7 264 7 63 9 877 13
525 7 482 7 365 7 115 9 943 13
525 7 445 7 357 7 195 9 48 11 872 15 715 22
525 7 484 7 368 7 123 9 857 11 633 18
